Data path: /scratch/opt/lxu/CFLG/benchmarks/tree_A
Instance: treeA.350.70
Result path: /scratch/opt/lxu/CFLG/results/tree_A
Solver: Gurobi
Time limit: 7200
Formulation: LEFPAI
Cover: Large
julia --project=. src/main.jl /scratch/opt/lxu/CFLG/benchmarks/tree_A treeA.350.70 /scratch/opt/lxu/CFLG/results/tree_A Gurobi 7200 LEFPAI Large
The latest version of Julia in the `release` channel is 1.11.6+0.x64.linux.gnu. You currently have `1.11.4+0.x64.linux.gnu` installed. Run:

  juliaup update

in your terminal shell to install Julia 1.11.6+0.x64.linux.gnu and update the `release` channel to that version.
/scratch/opt/lxu/CFLG/benchmarks/tree_A Gurobi 7200.0 /scratch/opt/lxu/CFLG/results/tree_A treeA.350.70 LEFPAI Large
/scratch/opt/lxu/CFLG/benchmarks/tree_A/treeA.350.70

 read graph
data loaded

problem_graph/original graph: node: 350/350 edge: 419/419 dlt: 3.0237713339098526 break_avg_len: 1.5118856669549263 break_max_len: 1.9903138698624758Vbar/V, Ebar/E(216, 350, 285, 419)
Set parameter TokenServer to value "solice01.zib.de"
Set parameter Threads to value 1
Set parameter OutputFlag to value 1
Gurobi Optimizer version 12.0.1 build v12.0.1rc0 (linux64 - "Debian GNU/Linux 12 (bookworm)")

CPU model: Intel(R) Xeon(R) Gold 5122 CPU @ 3.60GHz, instruction set [SSE2|AVX|AVX2|AVX512]
Thread count: 8 physical cores, 16 logical processors, using up to 1 threads

Non-default parameters:
Threads  1

Optimize a model with 635 rows, 1056 columns and 1760 nonzeros
Model fingerprint: 0xc93a41c3
Coefficient statistics:
  Matrix range     [1e+00, 1e+00]
  Objective range  [1e+00, 1e+00]
  Bounds range     [1e+00, 1e+00]
  RHS range        [1e+00, 1e+00]
Presolve removed 290 rows and 368 columns
Presolve time: 0.00s
Presolved: 345 rows, 688 columns, 1102 nonzeros

Iteration    Objective       Primal Inf.    Dual Inf.      Time
       0    3.5200000e+02   1.870000e+02   0.000000e+00      0s
     135    2.1600000e+02   0.000000e+00   0.000000e+00      0s

Solved in 135 iterations and 0.00 seconds (0.00 work units)
Optimal objective  2.160000000e+02

User-callback calls 214, time in user-callback 0.00 sec
elapsed CPU time: 1.440436 seconds
Set parameter TokenServer to value "solice01.zib.de"
Set parameter Threads to value 1
Set parameter OutputFlag to value 1
Set parameter MIPGap to value 0.0001
Set parameter TimeLimit to value 7198.559564

 more cuts: false 3.0237713339098526 false
is_attach:trueformulation:LEFPAI0 352 283

 model loaded

Gurobi Optimizer version 12.0.1 build v12.0.1rc0 (linux64 - "Debian GNU/Linux 12 (bookworm)")

CPU model: Intel(R) Xeon(R) Gold 5122 CPU @ 3.60GHz, instruction set [SSE2|AVX|AVX2|AVX512]
Thread count: 8 physical cores, 16 logical processors, using up to 1 threads

Non-default parameters:
TimeLimit  7198.559564
Threads  1

Optimize a model with 7899 rows, 6425 columns and 21241 nonzeros
Model fingerprint: 0x168fc1f6
Model has 4734 simple general constraints
  4734 INDICATOR
Variable types: 987 continuous, 5438 integer (5438 binary)
Coefficient statistics:
  Matrix range     [1e-02, 3e+00]
  Objective range  [1e+00, 1e+00]
  Bounds range     [1e-02, 3e+00]
  RHS range        [1e-02, 6e+00]
  GenCon rhs range [9e-04, 3e+00]
  GenCon coe range [1e+00, 1e+00]
Presolve added 38 rows and 0 columns
Presolve removed 0 rows and 1899 columns
Presolve time: 0.40s
Presolved: 7937 rows, 4526 columns, 41738 nonzeros
Variable types: 534 continuous, 3992 integer (3990 binary)
Found heuristic solution: objective 243.0000000
Found heuristic solution: objective 210.0000000

Root relaxation: objective 6.138017e+01, 4134 iterations, 0.21 seconds (0.20 work units)

    Nodes    |    Current Node    |     Objective Bounds      |     Work
 Expl Unexpl |  Obj  Depth IntInf | Incumbent    BestBd   Gap | It/Node Time

     0     0   61.38017    0  472  210.00000   61.38017  70.8%     -    0s
H    0     0                     158.0000000   61.38017  61.2%     -    0s
H    0     0                      91.0000000   61.38017  32.5%     -    0s
H    0     0                      90.0000000   61.38017  31.8%     -    0s
     0     0   63.74785    0  664   90.00000   63.74785  29.2%     -    1s
     0     0   64.24785    0  649   90.00000   64.24785  28.6%     -    1s
     0     0   66.61380    0  631   90.00000   66.61380  26.0%     -    1s
H    0     0                      89.0000000   66.61380  25.2%     -    1s
H    0     0                      88.0000000   66.61380  24.3%     -    1s
H    0     0                      87.0000000   66.61380  23.4%     -    1s
H    0     0                      86.0000000   66.61380  22.5%     -    1s
     0     0   66.61380    0  620   86.00000   66.61380  22.5%     -    1s
     0     0   67.71597    0  593   86.00000   67.71597  21.3%     -    1s
H    0     0                      85.0000000   67.71597  20.3%     -    1s
     0     0   67.73060    0  581   85.00000   67.73060  20.3%     -    1s
     0     0   67.73060    0  557   85.00000   67.73060  20.3%     -    1s
     0     0   67.90496    0  555   85.00000   67.90496  20.1%     -    2s
     0     0   67.90496    0  532   85.00000   67.90496  20.1%     -    2s
     0     0   67.90861    0  587   85.00000   67.90861  20.1%     -    2s
     0     0   67.91800    0  557   85.00000   67.91800  20.1%     -    2s
     0     0   67.91800    0  556   85.00000   67.91800  20.1%     -    2s
     0     0   67.95784    0  552   85.00000   67.95784  20.0%     -    2s
H    0     0                      80.0000000   67.95784  15.1%     -    2s
H    0     0                      79.0000000   67.95784  14.0%     -    2s
H    0     0                      78.0000000   67.95784  12.9%     -    2s
H    0     0                      77.0000000   67.95784  11.7%     -    2s
H    0     0                      76.0000000   67.95784  10.6%     -    2s
     0     0   67.96269    0  555   76.00000   67.96269  10.6%     -    2s
     0     0   67.96269    0  559   76.00000   67.96269  10.6%     -    2s
     0     0   67.96269    0  511   76.00000   67.96269  10.6%     -    2s
     0     0   67.96269    0  520   76.00000   67.96269  10.6%     -    2s
     0     0   67.96269    0  518   76.00000   67.96269  10.6%     -    2s
     0     0   67.96269    0  306   76.00000   67.96269  10.6%     -    2s
H    0     0                      75.0000000   68.01183  9.32%     -    2s
     0     2   68.01183    0  268   75.00000   68.01183  9.32%     -    3s
H  271   213                      74.0000000   68.49906  7.43%  60.6    4s
   298   242   70.57738   29  377   74.00000   68.49906  7.43%  61.5    5s
   560   468   71.50000   29  298   74.00000   70.69633  4.46%  58.8   10s
   581   482   71.27624    6  225   74.00000   71.27624  3.68%  56.6   15s
   606   500   71.50000   10   73   74.00000   71.50000  3.38%   177   20s
H  618   482                      73.0000000   71.57143  1.96%   173   23s
   624   486   71.57143   35  304   73.00000   71.57143  1.96%   172   25s

Cutting planes:
  Gomory: 7
  Cover: 14
  Implied bound: 32
  Projected implied bound: 1
  Clique: 11
  MIR: 8
  Mixing: 2
  StrongCG: 1
  Flow cover: 30
  GUB cover: 9
  Zero half: 3
  RLT: 6
  Relax-and-lift: 2

Explored 637 nodes (229986 simplex iterations) in 27.25 seconds (21.86 work units)
Thread count was 1 (of 16 available processors)

Solution count 10: 73 74 74 ... 79

Optimal solution found (tolerance 1.00e-04)
Warning: max constraint violation (3.2204e-06) exceeds tolerance
Warning: max general constraint violation (3.2204e-06) exceeds tolerance
Best objective 7.300000000000e+01, best bound 7.300000000000e+01, gap 0.0000%

User-callback calls 10455, time in user-callback 0.01 sec

 sepatime0 0 0
73.0
Stat(MathOptInterface.OPTIMAL, 73.0, 73.0, 0.0, 0.0, 1.440436, 27.25304889678955, 637, Main.CFLG.LEFPAI, "", #undef)
